DIR: 0.0, EFF: 0.8333333333333333, INT: 0.08333333333333333, OBJ: 0.08333333333333333
original problem has 1830 variables (1830 bin, 0 int, 0 impl, 0 cont) and 337 constraints
unknown variable <t_X00000> in line 2 of solution file </mnt/lscratch/users/dferrario/Adaptive-Cutsel-MILP/TransformedSolutions/aligninq__trans__seed__1.sol>
  (further unknown variables are ignored)
1/1 feasible solution given by solution candidate storage, new primal bound 2.713000e+03

presolving:
   (0.0s) running MILP presolver
   (0.0s) MILP presolver found nothing
   (0.1s) probing: 51/1830 (2.8%) - 0 fixings, 0 aggregations, 0 implications, 0 bound changes
   (0.1s) probing aborted: 50/50 successive totally useless probings
presolving (1 rounds: 1 fast, 1 medium, 1 exhaustive):
 0 deleted vars, 0 deleted constraints, 0 added constraints, 0 tightened bounds, 0 added holes, 0 changed sides, 0 changed coefficients
 0 implications, 0 cliques
presolved problem has 1830 variables (1830 bin, 0 int, 0 impl, 0 cont) and 337 constraints
    149 constraints of type <knapsack>
    188 constraints of type <logicor>
transformed objective value is always integral (scale: 1)
Presolving Time: 0.07
transformed 1/1 original solutions to the transformed problem space

 time | node  | left  |LP iter|LP it/n|mem/heur|mdpt |vars |cons |rows |cuts |sepa|confs|strbr|  dualbound   | primalbound  |  gap   | compl. 
  0.1s|     1 |     0 |   801 |     - |    16M |   0 |1830 | 337 | 336 |   0 |  0 |   0 |   0 | 2.654737e+03 | 2.713000e+03 |   2.19%| unknown
Computing relative interior point (time limit: 19.8527, iter limit: 8010) ...
  0.5s|     1 |     0 |   931 |     - |    18M |   0 |1831 | 337 | 342 |   6 |  1 |   0 |   0 | 2.654737e+03 | 2.713000e+03 |   2.19%| unknown
  0.5s|     1 |     0 |   931 |     - |    18M |   0 |1831 | 337 | 342 |   6 |  1 |   0 |   0 | 2.660129e+03 | 2.713000e+03 |   1.99%| unknown
  0.6s|     1 |     0 |   997 |     - |    18M |   0 |1831 | 337 | 343 |   7 |  2 |   0 |   0 | 2.662015e+03 | 2.713000e+03 |   1.92%| unknown
  0.7s|     1 |     0 |  1144 |     - |    20M |   0 |1831 | 337 | 353 |  17 |  3 |   0 |   0 | 2.663988e+03 | 2.713000e+03 |   1.84%| unknown
  0.8s|     1 |     0 |  1244 |     - |    20M |   0 |1831 | 337 | 354 |  18 |  4 |   0 |   0 | 2.664671e+03 | 2.713000e+03 |   1.81%| unknown
  0.9s|     1 |     0 |  1366 |     - |    21M |   0 |1831 | 337 | 355 |  19 |  5 |   0 |   0 | 2.665379e+03 | 2.713000e+03 |   1.79%| unknown
  0.9s|     1 |     0 |  1428 |     - |    21M |   0 |1831 | 337 | 357 |  21 |  6 |   0 |   0 | 2.666000e+03 | 2.713000e+03 |   1.76%| unknown
  1.0s|     1 |     0 |  1567 |     - |    21M |   0 |1831 | 337 | 360 |  24 |  7 |   0 |   0 | 2.666733e+03 | 2.713000e+03 |   1.73%| unknown
  1.1s|     1 |     0 |  1671 |     - |    21M |   0 |1831 | 337 | 361 |  25 |  8 |   0 |   0 | 2.667579e+03 | 2.713000e+03 |   1.70%| unknown
  1.2s|     1 |     0 |  1880 |     - |    21M |   0 |1831 | 337 | 363 |  27 |  9 |   0 |   0 | 2.670162e+03 | 2.713000e+03 |   1.60%| unknown
  1.3s|     1 |     0 |  2047 |     - |    21M |   0 |1831 | 337 | 359 |  30 | 10 |   0 |   0 | 2.671770e+03 | 2.713000e+03 |   1.54%| unknown
  1.4s|     1 |     0 |  2112 |     - |    21M |   0 |1831 | 337 | 360 |  31 | 11 |   0 |   0 | 2.672072e+03 | 2.713000e+03 |   1.53%| unknown
  1.4s|     1 |     0 |  2189 |     - |    21M |   0 |1831 | 337 | 362 |  33 | 12 |   0 |   0 | 2.673000e+03 | 2.713000e+03 |   1.50%| unknown
  1.5s|     1 |     0 |  2396 |     - |    21M |   0 |1831 | 337 | 362 |  35 | 13 |   0 |   0 | 2.674059e+03 | 2.713000e+03 |   1.46%| unknown
 time | node  | left  |LP iter|LP it/n|mem/heur|mdpt |vars |cons |rows |cuts |sepa|confs|strbr|  dualbound   | primalbound  |  gap   | compl. 
  1.6s|     1 |     0 |  2566 |     - |    24M |   0 |1831 | 337 | 372 |  45 | 14 |   0 |   0 | 2.676139e+03 | 2.713000e+03 |   1.38%| unknown
  1.7s|     1 |     0 |  2631 |     - |    24M |   0 |1831 | 337 | 375 |  48 | 15 |   0 |   0 | 2.677000e+03 | 2.713000e+03 |   1.34%| unknown
  1.9s|     1 |     0 |  2895 |     - |    44M |   0 |1831 | 337 | 385 |  58 | 16 |   0 |   0 | 2.679521e+03 | 2.713000e+03 |   1.25%| unknown
  1.9s|     1 |     0 |  3143 |     - |    44M |   0 |1831 | 337 | 391 |  65 | 17 |   0 |   0 | 2.681429e+03 | 2.713000e+03 |   1.18%| unknown
  2.0s|     1 |     0 |  3215 |     - |    44M |   0 |1831 | 337 | 393 |  67 | 18 |   0 |   0 | 2.682000e+03 | 2.713000e+03 |   1.16%| unknown
  2.1s|     1 |     0 |  3291 |     - |    43M |   0 |1831 | 337 | 397 |  71 | 19 |   0 |   0 | 2.682190e+03 | 2.713000e+03 |   1.15%| unknown
  2.2s|     1 |     0 |  3298 |     - |    43M |   0 |1831 | 337 | 398 |  72 | 20 |   0 |   0 | 2.682210e+03 | 2.713000e+03 |   1.15%| unknown
  2.2s|     1 |     0 |  3305 |     - |    43M |   0 |1831 | 337 | 390 |  73 | 21 |   0 |   0 | 2.682221e+03 | 2.713000e+03 |   1.15%| unknown
  2.3s|     1 |     0 |  3337 |     - |    43M |   0 |1831 | 337 | 392 |  75 | 22 |   0 |   0 | 2.682368e+03 | 2.713000e+03 |   1.14%| unknown
  2.4s|     1 |     0 |  3408 |     - |    43M |   0 |1831 | 337 | 396 |  79 | 23 |   0 |   0 | 2.682844e+03 | 2.713000e+03 |   1.12%| unknown
  2.4s|     1 |     0 |  3425 |     - |    44M |   0 |1831 | 337 | 397 |  80 | 24 |   0 |   0 | 2.682876e+03 | 2.713000e+03 |   1.12%| unknown
  2.5s|     1 |     0 |  3468 |     - |    44M |   0 |1831 | 337 | 398 |  81 | 25 |   0 |   0 | 2.683090e+03 | 2.713000e+03 |   1.11%| unknown
  2.5s|     1 |     0 |  3525 |     - |    44M |   0 |1831 | 337 | 384 |  83 | 26 |   0 |   0 | 2.684000e+03 | 2.713000e+03 |   1.08%| unknown
  2.6s|     1 |     0 |  3574 |     - |    44M |   0 |1831 | 337 | 388 |  87 | 27 |   0 |   0 | 2.684000e+03 | 2.713000e+03 |   1.08%| unknown
  2.7s|     1 |     0 |  3652 |     - |    44M |   0 |1831 | 337 | 391 |  90 | 28 |   0 |   0 | 2.684000e+03 | 2.713000e+03 |   1.08%| unknown
 time | node  | left  |LP iter|LP it/n|mem/heur|mdpt |vars |cons |rows |cuts |sepa|confs|strbr|  dualbound   | primalbound  |  gap   | compl. 
  2.7s|     1 |     0 |  3748 |     - |    44M |   0 |1831 | 337 | 393 |  92 | 29 |   0 |   0 | 2.684000e+03 | 2.713000e+03 |   1.08%| unknown
  2.8s|     1 |     0 |  3802 |     - |    45M |   0 |1831 | 337 | 394 |  93 | 30 |   0 |   0 | 2.684000e+03 | 2.713000e+03 |   1.08%| unknown
  2.9s|     1 |     0 |  3882 |     - |    45M |   0 |1831 | 337 | 396 |  95 | 31 |   0 |   0 | 2.684000e+03 | 2.713000e+03 |   1.08%| unknown
  2.9s|     1 |     0 |  3915 |     - |    45M |   0 |1831 | 337 | 394 |  97 | 32 |   0 |   0 | 2.684000e+03 | 2.713000e+03 |   1.08%| unknown
  3.0s|     1 |     0 |  4033 |     - |    45M |   0 |1831 | 337 | 395 |  98 | 33 |   0 |   0 | 2.684117e+03 | 2.713000e+03 |   1.08%| unknown
  3.1s|     1 |     0 |  4055 |     - |    45M |   0 |1831 | 337 | 396 |  99 | 34 |   0 |   0 | 2.684246e+03 | 2.713000e+03 |   1.07%| unknown
  3.1s|     1 |     0 |  4125 |     - |    45M |   0 |1831 | 337 | 397 | 100 | 35 |   0 |   0 | 2.684599e+03 | 2.713000e+03 |   1.06%| unknown
  3.2s|     1 |     0 |  4138 |     - |    45M |   0 |1831 | 337 | 398 | 101 | 36 |   0 |   0 | 2.684683e+03 | 2.713000e+03 |   1.05%| unknown
  3.2s|     1 |     0 |  4172 |     - |    45M |   0 |1831 | 337 | 399 | 102 | 37 |   0 |   0 | 2.684829e+03 | 2.713000e+03 |   1.05%| unknown
  3.3s|     1 |     0 |  4212 |     - |    45M |   0 |1831 | 337 | 397 | 103 | 38 |   0 |   0 | 2.685015e+03 | 2.713000e+03 |   1.04%| unknown
  3.4s|     1 |     0 |  4234 |     - |    45M |   0 |1831 | 337 | 398 | 104 | 39 |   0 |   0 | 2.686000e+03 | 2.713000e+03 |   1.01%| unknown
  3.4s|     1 |     0 |  4301 |     - |    45M |   0 |1831 | 337 | 400 | 106 | 40 |   0 |   0 | 2.686000e+03 | 2.713000e+03 |   1.01%| unknown
  3.5s|     1 |     0 |  4397 |     - |    45M |   0 |1831 | 337 | 404 | 110 | 41 |   0 |   0 | 2.686000e+03 | 2.713000e+03 |   1.01%| unknown
  3.6s|     1 |     0 |  4464 |     - |    45M |   0 |1831 | 337 | 405 | 111 | 42 |   0 |   0 | 2.686000e+03 | 2.713000e+03 |   1.01%| unknown
  3.6s|     1 |     0 |  4584 |     - |    46M |   0 |1831 | 337 | 402 | 115 | 43 |   0 |   0 | 2.686000e+03 | 2.713000e+03 |   1.01%| unknown
 time | node  | left  |LP iter|LP it/n|mem/heur|mdpt |vars |cons |rows |cuts |sepa|confs|strbr|  dualbound   | primalbound  |  gap   | compl. 
  3.7s|     1 |     0 |  4605 |     - |    46M |   0 |1831 | 337 | 403 | 116 | 44 |   0 |   0 | 2.686000e+03 | 2.713000e+03 |   1.01%| unknown
  3.8s|     1 |     0 |  4664 |     - |    46M |   0 |1831 | 337 | 404 | 117 | 45 |   0 |   0 | 2.686000e+03 | 2.713000e+03 |   1.01%| unknown
  3.8s|     1 |     0 |  4699 |     - |    46M |   0 |1831 | 337 | 406 | 119 | 46 |   0 |   0 | 2.686000e+03 | 2.713000e+03 |   1.01%| unknown
  3.9s|     1 |     0 |  4756 |     - |    46M |   0 |1831 | 337 | 407 | 120 | 47 |   0 |   0 | 2.686000e+03 | 2.713000e+03 |   1.01%| unknown
  3.9s|     1 |     0 |  4794 |     - |    46M |   0 |1831 | 337 | 408 | 121 | 48 |   0 |   0 | 2.686000e+03 | 2.713000e+03 |   1.01%| unknown
  4.0s|     1 |     0 |  4876 |     - |    46M |   0 |1831 | 337 | 405 | 123 | 49 |   0 |   0 | 2.686000e+03 | 2.713000e+03 |   1.01%| unknown
  4.0s|     1 |     2 |  4876 |     - |    46M |   0 |1831 | 337 | 405 | 123 | 50 |   0 |   0 | 2.686000e+03 | 2.713000e+03 |   1.01%| unknown

SCIP Status        : solving was interrupted [node limit reached]
Solving Time (sec) : 4.02
Solving Nodes      : 1
Primal Bound       : +2.71300000000000e+03 (1 solutions)
Dual Bound         : +2.68600000000000e+03
Gap                : 1.01 %
